num_servers = 5;
sid = [0, 1, 2, 3, 4];
scpu = [10, 2, 10, 5, 5];
sram = [10, 4, 10, 3, 12];

num_vms = 22;
vjob = [0, 1, 2, 3, 3, 4, 5, 5, 5, 5, 5, 6, 7, 7, 7, 8, 8, 9, 9, 10, 11, 12];
vindex = [0, 0, 0, 0, 1, 0, 0, 1, 2, 3, 4, 0, 0, 1, 2, 0, 1, 0, 1, 0, 0, 0];
vcpu = [1, 1, 1, 1, 1, 1, 1, 3, 1, 1, 1, 1, 1, 1, 1, 1, 1, 1, 1, 1, 1, 1];
vram = [1, 2, 1, 1, 1, 1, 1, 1, 1, 1, 1, 1, 1, 1, 1, 1, 1, 2, 1, 1, 1, 1];
vac = [true, true, true, true, true, true, true, true, true, true, true, true, true, true, true, true, true, true, true, true, true, true];
